Input file: instance_14.lp
Input data:
num_squadre(2).
player(1, portiere, centrocampista).
player(2, portiere, attaccante).
player(3, centrocampista, attaccante).
player(4, portiere, difensore).
player(5, difensore, portiere).
player(6, centrocampista, difensore).
player(7, centrocampista, portiere).
player(8, difensore, portiere).
player(9, centrocampista, attaccante).
player(10, difensore, attaccante).
player(11, difensore, centrocampista).
player(12, attaccante, portiere).
player(13, portiere, centrocampista).
player(14, centrocampista, portiere).
different_team(1, 2).
different_team(3, 9).

Output Clingo:
clingo version 5.7.1
Reading from ...ed-Reasoning-Project\Clingo\implASP.lp ...
Solving...
Answer: 1
assigned(1,2,portiere) assigned(2,1,portiere) assigned(3,2,centrocampista) assigned(4,1,difensore) assigned(5,2,difensore) assigned(6,2,difensore) assigned(7,2,centrocampista) assigned(8,1,difensore) assigned(9,1,centrocampista) assigned(10,2,attaccante) assigned(11,2,difensore) assigned(12,1,attaccante) assigned(13,2,centrocampista) assigned(14,1,centrocampista) total_penalty(1)
Optimization: 1
Answer: 2
assigned(1,1,centrocampista) assigned(2,2,attaccante) assigned(3,1,centrocampista) assigned(4,1,difensore) assigned(5,2,difensore) assigned(6,1,centrocampista) assigned(7,2,centrocampista) assigned(8,1,difensore) assigned(9,2,centrocampista) assigned(10,2,difensore) assigned(11,2,centrocampista) assigned(12,1,attaccante) assigned(13,1,portiere) assigned(14,2,portiere) total_penalty(0)
Optimization: 0
Answer: 1
assigned(1,1,centrocampista) assigned(2,2,portiere) assigned(3,1,centrocampista) assigned(4,2,difensore) assigned(5,1,difensore) assigned(6,1,centrocampista) assigned(7,2,centrocampista) assigned(8,2,difensore) assigned(9,2,attaccante) assigned(10,1,difensore) assigned(11,2,centrocampista) assigned(12,1,attaccante) assigned(13,1,portiere) assigned(14,2,centrocampista) total_penalty(0)
Optimization: 0
OPTIMUM FOUND

Models       : 3+
  Optimum    : yes
Optimization : 0
Calls        : 1
Time         : 0.006s (Solving: 0.00s 1st Model: 0.00s Unsat: 0.00s)
CPU Time     : 0.000s

Tempo di esecuzione Clingo: 0.03 secondi
